(set-info :smt-lib-version 2.6)
(set-logic AUFNIRA)
(set-info :source |
Encoded by: Mirek Olšák, Mikoláš Janota, Chad E. Brown
From a collection by: Vít Musil
Source url: https://prase.cz/library/FunkcionalniRovniceVM/FunkcionalniRovniceVM.pdf
Problem number: Úloha 17
|)
(set-info :license "https://creativecommons.org/licenses/by-nc/4.0/")
(set-info :category "crafted")
(set-info :status sat)

; Header
(declare-const r Real)
(declare-fun f (Real) Real)

; Equations
(assert (forall ((x Real)) (= (f (f x)) (+ x (f x)))))
(assert (= (f (f r)) 0.0))

; Find all possible r

(check-sat)
(exit)
(get-model)
